unsat
(define-fun inv ((s (_ BitVec 4)) (t (_ BitVec 4))) (_ BitVec 4) #b1111)
0.01user 0.00system 0:00.01elapsed 94%CPU (0avgtext+0avgdata 25544maxresident)k
8inputs+8outputs (0major+1023minor)pagefaults 0swaps
